c nIsolatedPIs 0
c maxPI 32
p cnf 191 478
c gate 33 -4 -20 0
-4 -33 0
-20 -33 0
4 20 33 0
c gate 34 4 20 0
4 -34 0
20 -34 0
-4 -20 34 0
c gate 35 -33 -34 0
-33 -35 0
-34 -35 0
33 34 35 0
c gate 36 -3 -19 0
-3 -36 0
-19 -36 0
3 19 36 0
c gate 37 1 17 0
1 -37 0
17 -37 0
-1 -17 37 0
c gate 38 2 37 0
2 -38 0
37 -38 0
-2 -37 38 0
c gate 39 -2 -37 0
-2 -39 0
-37 -39 0
2 37 39 0
c gate 40 18 -39 0
18 -40 0
-39 -40 0
-18 39 40 0
c gate 41 3 19 0
3 -41 0
19 -41 0
-3 -19 41 0
c gate 42 -40 -41 0
-40 -42 0
-41 -42 0
40 41 42 0
c gate 43 -38 42 0
-38 -43 0
42 -43 0
38 -42 43 0
c gate 44 -36 -43 0
-36 -44 0
-43 -44 0
36 43 44 0
c gate 45 -35 44 0
-35 -45 0
44 -45 0
35 -44 45 0
c gate 46 35 -44 0
35 -46 0
-44 -46 0
-35 44 46 0
c gate 47 -45 -46 0
-45 -47 0
-46 -47 0
45 46 47 0
c gate 48 -35 42 0
-35 -48 0
42 -48 0
35 -42 48 0
c gate 49 35 -42 0
35 -49 0
-42 -49 0
-35 42 49 0
c gate 50 -48 -49 0
-48 -50 0
-49 -50 0
48 49 50 0
c gate 51 -47 -50 0
-47 -51 0
-50 -51 0
47 50 51 0
c gate 52 38 -40 0
38 -52 0
-40 -52 0
-38 40 52 0
c gate 53 -36 -41 0
-36 -53 0
-41 -53 0
36 41 53 0
c gate 54 52 -53 0
52 -54 0
-53 -54 0
-52 53 54 0
c gate 55 -51 -54 0
-51 -55 0
-54 -55 0
51 54 55 0
c gate 56 15 31 0
15 -56 0
31 -56 0
-15 -31 56 0
c gate 57 -15 -31 0
-15 -57 0
-31 -57 0
15 31 57 0
c gate 58 -14 -30 0
-14 -58 0
-30 -58 0
14 30 58 0
c gate 59 -57 -58 0
-57 -59 0
-58 -59 0
57 58 59 0
c gate 60 14 30 0
14 -60 0
30 -60 0
-14 -30 60 0
c gate 61 13 29 0
13 -61 0
29 -61 0
-13 -29 61 0
c gate 62 -60 -61 0
-60 -62 0
-61 -62 0
60 61 62 0
c gate 63 -12 -28 0
-12 -63 0
-28 -63 0
12 28 63 0
c gate 64 -13 -29 0
-13 -64 0
-29 -64 0
13 29 64 0
c gate 65 -63 -64 0
-63 -65 0
-64 -65 0
63 64 65 0
c gate 66 -11 -27 0
-11 -66 0
-27 -66 0
11 27 66 0
c gate 67 -10 -26 0
-10 -67 0
-26 -67 0
10 26 67 0
c gate 68 -66 -67 0
-66 -68 0
-67 -68 0
66 67 68 0
c gate 69 9 25 0
9 -69 0
25 -69 0
-9 -25 69 0
c gate 70 10 26 0
10 -70 0
26 -70 0
-10 -26 70 0
c gate 71 -69 -70 0
-69 -71 0
-70 -71 0
69 70 71 0
c gate 72 -8 -24 0
-8 -72 0
-24 -72 0
8 24 72 0
c gate 73 8 24 0
8 -73 0
24 -73 0
-8 -24 73 0
c gate 74 -72 -73 0
-72 -74 0
-73 -74 0
72 73 74 0
c gate 75 7 23 0
7 -75 0
23 -75 0
-7 -23 75 0
c gate 76 -7 -23 0
-7 -76 0
-23 -76 0
7 23 76 0
c gate 77 -6 -22 0
-6 -77 0
-22 -77 0
6 22 77 0
c gate 78 6 22 0
6 -78 0
22 -78 0
-6 -22 78 0
c gate 79 -5 -21 0
-5 -79 0
-21 -79 0
5 21 79 0
c gate 80 5 21 0
5 -80 0
21 -80 0
-5 -21 80 0
c gate 81 -79 -80 0
-79 -81 0
-80 -81 0
79 80 81 0
c gate 82 -33 -46 0
-33 -82 0
-46 -82 0
33 46 82 0
c gate 83 81 -82 0
81 -83 0
-82 -83 0
-81 82 83 0
c gate 84 -79 -83 0
-79 -84 0
-83 -84 0
79 83 84 0
c gate 85 -78 -84 0
-78 -85 0
-84 -85 0
78 84 85 0
c gate 86 -77 -85 0
-77 -86 0
-85 -86 0
77 85 86 0
c gate 87 -76 86 0
-76 -87 0
86 -87 0
76 -86 87 0
c gate 88 -75 -87 0
-75 -88 0
-87 -88 0
75 87 88 0
c gate 89 74 88 0
74 -89 0
88 -89 0
-74 -88 89 0
c gate 90 -9 -25 0
-9 -90 0
-25 -90 0
9 25 90 0
c gate 91 -72 -90 0
-72 -91 0
-90 -91 0
72 90 91 0
c gate 92 -89 91 0
-89 -92 0
91 -92 0
89 -91 92 0
c gate 93 71 -92 0
71 -93 0
-92 -93 0
-71 92 93 0
c gate 94 68 -93 0
68 -94 0
-93 -94 0
-68 93 94 0
c gate 95 11 27 0
11 -95 0
27 -95 0
-11 -27 95 0
c gate 96 12 28 0
12 -96 0
28 -96 0
-12 -28 96 0
c gate 97 -95 -96 0
-95 -97 0
-96 -97 0
95 96 97 0
c gate 98 -94 97 0
-94 -98 0
97 -98 0
94 -97 98 0
c gate 99 65 -98 0
65 -99 0
-98 -99 0
-65 98 99 0
c gate 100 62 -99 0
62 -100 0
-99 -100 0
-62 99 100 0
c gate 101 59 -100 0
59 -101 0
-100 -101 0
-59 100 101 0
c gate 102 -56 -101 0
-56 -102 0
-101 -102 0
56 101 102 0
c gate 103 -16 -32 0
-16 -103 0
-32 -103 0
16 32 103 0
c gate 104 16 32 0
16 -104 0
32 -104 0
-16 -32 104 0
c gate 105 -103 -104 0
-103 -105 0
-104 -105 0
103 104 105 0
c gate 106 102 -105 0
102 -106 0
-105 -106 0
-102 105 106 0
c gate 107 -102 105 0
-102 -107 0
105 -107 0
102 -105 107 0
c gate 108 -106 -107 0
-106 -108 0
-107 -108 0
106 107 108 0
c gate 109 68 -95 0
68 -109 0
-95 -109 0
-68 95 109 0
c gate 110 -75 -76 0
-75 -110 0
-76 -110 0
75 76 110 0
c gate 111 -77 -78 0
-77 -111 0
-78 -111 0
77 78 111 0
c gate 112 -34 -49 0
-34 -112 0
-49 -112 0
34 49 112 0
c gate 113 -79 -112 0
-79 -113 0
-112 -113 0
79 112 113 0
c gate 114 -80 -113 0
-80 -114 0
-113 -114 0
80 113 114 0
c gate 115 111 -114 0
111 -115 0
-114 -115 0
-111 114 115 0
c gate 116 -78 -115 0
-78 -116 0
-115 -116 0
78 115 116 0
c gate 117 110 -116 0
110 -117 0
-116 -117 0
-110 116 117 0
c gate 118 -75 -117 0
-75 -118 0
-117 -118 0
75 117 118 0
c gate 119 -73 118 0
-73 -119 0
118 -119 0
73 -118 119 0
c gate 120 91 -119 0
91 -120 0
-119 -120 0
-91 119 120 0
c gate 121 71 -120 0
71 -121 0
-120 -121 0
-71 120 121 0
c gate 122 109 -121 0
109 -122 0
-121 -122 0
-109 121 122 0
c gate 123 97 -122 0
97 -123 0
-122 -123 0
-97 122 123 0
c gate 124 65 -123 0
65 -124 0
-123 -124 0
-65 123 124 0
c gate 125 62 -124 0
62 -125 0
-124 -125 0
-62 124 125 0
c gate 126 -58 -125 0
-58 -126 0
-125 -126 0
58 125 126 0
c gate 127 -56 -126 0
-56 -127 0
-126 -127 0
56 126 127 0
c gate 128 -57 -127 0
-57 -128 0
-127 -128 0
57 127 128 0
c gate 129 -105 128 0
-105 -129 0
128 -129 0
105 -128 129 0
c gate 130 105 -128 0
105 -130 0
-128 -130 0
-105 128 130 0
c gate 131 -129 -130 0
-129 -131 0
-130 -131 0
129 130 131 0
c gate 132 -108 -131 0
-108 -132 0
-131 -132 0
108 131 132 0
c gate 133 -56 -64 0
-56 -133 0
-64 -133 0
56 64 133 0
c gate 134 59 133 0
59 -134 0
133 -134 0
-59 -133 134 0
c gate 135 62 134 0
62 -135 0
134 -135 0
-62 -134 135 0
c gate 136 94 135 0
94 -136 0
135 -136 0
-94 -135 136 0
c gate 137 -94 -122 0
-94 -137 0
-122 -137 0
94 122 137 0
c gate 138 122 -135 0
122 -138 0
-135 -138 0
-122 135 138 0
c gate 139 -63 97 0
-63 -139 0
97 -139 0
63 -97 139 0
c gate 140 -138 139 0
-138 -140 0
139 -140 0
138 -139 140 0
c gate 141 -137 140 0
-137 -141 0
140 -141 0
137 -140 141 0
c gate 142 -136 141 0
-136 -142 0
141 -142 0
136 -141 142 0
c gate 143 -132 142 0
-132 -143 0
142 -143 0
132 -142 143 0
c gate 144 108 131 0
108 -144 0
131 -144 0
-108 -131 144 0
c gate 145 -74 -88 0
-74 -145 0
-88 -145 0
74 88 145 0
c gate 146 -89 -145 0
-89 -146 0
-145 -146 0
89 145 146 0
c gate 147 74 -118 0
74 -147 0
-118 -147 0
-74 118 147 0
c gate 148 -74 118 0
-74 -148 0
118 -148 0
74 -118 148 0
c gate 149 -147 -148 0
-147 -149 0
-148 -149 0
147 148 149 0
c gate 150 146 149 0
146 -150 0
149 -150 0
-146 -149 150 0
c gate 151 -146 -149 0
-146 -151 0
-149 -151 0
146 149 151 0
c gate 152 -150 -151 0
-150 -152 0
-151 -152 0
150 151 152 0
c gate 153 74 -152 0
74 -153 0
-152 -153 0
-74 152 153 0
c gate 154 71 -90 0
71 -154 0
-90 -154 0
-71 90 154 0
c gate 155 109 154 0
109 -155 0
154 -155 0
-109 -154 155 0
c gate 156 87 -155 0
87 -156 0
-155 -156 0
-87 155 156 0
c gate 157 -63 -96 0
-63 -157 0
-96 -157 0
63 96 157 0
c gate 158 -117 -157 0
-117 -158 0
-157 -158 0
117 157 158 0
c gate 159 -156 -158 0
-156 -159 0
-158 -159 0
156 158 159 0
c gate 160 153 159 0
153 -160 0
159 -160 0
-153 -159 160 0
c gate 161 -144 160 0
-144 -161 0
160 -161 0
144 -160 161 0
c gate 162 -143 161 0
-143 -162 0
161 -162 0
143 -161 162 0
c gate 163 -110 116 0
-110 -163 0
116 -163 0
110 -116 163 0
c gate 164 -117 -163 0
-117 -164 0
-163 -164 0
117 163 164 0
c gate 165 -86 110 0
-86 -165 0
110 -165 0
86 -110 165 0
c gate 166 86 -110 0
86 -166 0
-110 -166 0
-86 110 166 0
c gate 167 -165 -166 0
-165 -167 0
-166 -167 0
165 166 167 0
c gate 168 164 167 0
164 -168 0
167 -168 0
-164 -167 168 0
c gate 169 -164 -167 0
-164 -169 0
-167 -169 0
164 167 169 0
c gate 170 -111 114 0
-111 -170 0
114 -170 0
111 -114 170 0
c gate 171 84 170 0
84 -171 0
170 -171 0
-84 -170 171 0
c gate 172 -84 115 0
-84 -172 0
115 -172 0
84 -115 172 0
c gate 173 -81 112 0
-81 -173 0
112 -173 0
81 -112 173 0
c gate 174 82 173 0
82 -174 0
173 -174 0
-82 -173 174 0
c gate 175 -172 -174 0
-172 -175 0
-174 -175 0
172 174 175 0
c gate 176 -171 175 0
-171 -176 0
175 -176 0
171 -175 176 0
c gate 177 -169 176 0
-169 -177 0
176 -177 0
169 -176 177 0
c gate 178 47 50 0
47 -178 0
50 -178 0
-47 -50 178 0
c gate 179 -51 -178 0
-51 -179 0
-178 -179 0
51 178 179 0
c gate 180 35 -179 0
35 -180 0
-179 -180 0
-35 179 180 0
c gate 181 -55 -180 0
-55 -181 0
-180 -181 0
55 180 181 0
c gate 182 177 -181 0
177 -182 0
-181 -182 0
-177 181 182 0
c gate 183 -168 -182 0
-168 -183 0
-182 -183 0
168 182 183 0
c gate 184 -150 183 0
-150 -184 0
183 -184 0
150 -183 184 0
c gate 185 -151 -153 0
-151 -185 0
-153 -185 0
151 153 185 0
c gate 186 -184 185 0
-184 -186 0
185 -186 0
184 -185 186 0
c gate 187 -162 -186 0
-162 -187 0
-186 -187 0
162 186 187 0
c gate 188 -55 -187 0
-55 -188 0
-187 -188 0
55 187 188 0
c gate 189 178 187 0
178 -189 0
187 -189 0
-178 -187 189 0
c gate 190 180 -189 0
180 -190 0
-189 -190 0
-180 189 190 0
c gate 191 -188 190 0
-188 -191 0
190 -191 0
188 -190 191 0
c PO
191 0
